language ESSENCE' 1.0

letting n_places be 2
letting n_upper be 4
letting n_words be 2
letting inter_FunctionAsRelation_RelationAsSet_Explicit_1_1 be ([] : `matrix indexed by [int()] of int`)
letting inter_FunctionAsRelation_RelationAsSet_Explicit_1_2 be ([] : `matrix indexed by [int()] of int`)
letting inter_FunctionAsRelation_RelationAsSet_Explicit_2_1 be ([] : `matrix indexed by [int()] of int`)
letting inter_FunctionAsRelation_RelationAsSet_Explicit_2_2 be ([] : `matrix indexed by [int()] of int`)
letting dict_FunctionAsRelationR13R16R5_RelationAsSetR13R16R5_ExplicitR13R16R5_1 be [1, 2; int(1..2)]
letting dict_FunctionAsRelationR13R16R5_RelationAsSetR13R16R5_ExplicitR13R16R5_2_FunctionAsRelation_RelationAsSet_ExplicitVarSizeWithMarker_Marker be
        [4, 2; int(1..2)]
letting dict_FunctionAsRelationR13R16R5_RelationAsSetR13R16R5_ExplicitR13R16R5_2_FunctionAsRelation_RelationAsSet_ExplicitVarSizeWithMarker_Values_1 be
        [[1, 2, 3, 4; int(1..4)], [1, 2, 1, 1; int(1..4)]; int(1..2)]
$ Visualisation for dict_FunctionAsRelationR13R16R5_RelationAsSetR13R16R5_ExplicitR13R16R5_2_FunctionAsRelation_RelationAsSet_ExplicitVarSizeWithMarker_Values_1
$ 1 2 3 4
$ 1 2 1 1

letting dict_FunctionAsRelationR13R16R5_RelationAsSetR13R16R5_ExplicitR13R16R5_2_FunctionAsRelation_RelationAsSet_ExplicitVarSizeWithMarker_Values_2 be
        [[65, 65, 65, 65; int(1..4)], [66, 68, 65, 65; int(1..4)]; int(1..2)]
$ Visualisation for dict_FunctionAsRelationR13R16R5_RelationAsSetR13R16R5_ExplicitR13R16R5_2_FunctionAsRelation_RelationAsSet_ExplicitVarSizeWithMarker_Values_2
$ 65 65 65 65
$ 66 68 65 65

letting length_FunctionAsRelation_RelationAsSet_Explicit_1 be [1, 2; int(1..2)]
letting length_FunctionAsRelation_RelationAsSet_Explicit_2 be [4, 2; int(1..2)]
letting fin1 be 2
letting fin2 be 0
letting fin3 be 2
letting fin4 be 4
